s td 204 48 772
b 1 21 23 42 56 62 104 153 197 235 346 417 430 468 486 550 584 655 676 677 715
b 2 48 80 213 261 562 572
b 3 70 77 108 133 137 162 205 225 244 307 309 330 332 404 413 509 519 583 589 595 634 666 731 734 767
b 4 12 14 89 156 166 194 303 378 387 618 624 644
b 5 11 95 168 296 306 313 421 424 458 636 684 704
b 6 106 119 327 386 432 446 456 459 489 642 673 720
b 7 109 123 201 216 285 287 386 412 437 446 543 569 600 642 705
b 8 49 76 94 129 150 158 178 179 214 227 345 354 393 411 434 442 588 648 671 764
b 9 45 123 201 216 285 287 386 412 437 446 543 569 600 642 705
b 10 145 175 220 232 258 338 365 517 570 688 719 729
b 11 2 77 98 125 187 208 245 282 312 330 335 336 368 390 396 548 573 637 646 674 675 678 691 692 734 737
b 12 219 328 344 353 372 391 436 504 545 560 659 668
b 13 68 79 293 339 495 726
b 14 58 240 280 341 455 474 476 544 578 597 625 660
b 15 45 119 386 432 446 456 459 642 673 720
b 16 44 124 126 134 183 191 204 254 318 319 324 351 477 491 586 601 629 721 735 740
b 17 1 7 10 47 63 82 84 131 180 215 242 451 480 483 559 565 593 631 727 742
b 18 13 15 60 117 135 142 173 196 210 226 260 265 269 286 337 448 536 563 582 635 647 685 746 753 756
b 19 19 167 175 207 258 352 364 365 381 534 598 623 632 711 749
b 20 19 167 175 207 258 352 364 365 374 381 534 623 632 711 749
b 21 13 29 55 91 113 164 173 211 222 234 248 250 283 388 410 482 494 537 635 656 662 682 706 712 744 761
b 22 145 175 220 258 338 365 374 570 688 729
b 23 3 6 24 165 262 295 334 343 347 469 554 680 690 693 696 716
b 24 118 159 203 291 322 349 422 452 467 478 497 513 525 526 590 608
b 25 51 64 127 141 255 475 651
b 26 51 81 127 255 475 476 499 651 660 743
b 27 51 81 127 280 476 499 651 660 743
b 28 103 142 144 195 367 427 516
b 29 103 142 144 306 315 382 427 516 613 704
b 30 142 144 306 315 382 516 613 684 704
b 31 246 274 405 406 435 590 722
b 32 14 159 246 291 303 405 406 525 590 722
b 33 14 159 246 291 303 525 590 644 722
b 34 68 79 293 400 714 726
b 35 68 79 209 380 400 493 552 564 714 726
b 36 80 261 562 572 626 681
b 37 30 80 128 239 253 261 326 572 626 681
b 38 169 241 262 329 709 718 765
b 39 169 241 262 295 329 372 545 690 716 718
b 40 241 262 295 372 436 545 690 716 718
b 41 1 4 26 34 38 65 77 98 132 160 170 177 190 215 244 330 335 348 438 485 500 507 519 565 573 575 595 605 606 691 702 710 727 734 737 739 769
b 42 26 34 67 77 96 98 132 144 160 170 177 193 235 252 306 315 330 335 348 379 382 384 438 441 460 468 485 507 519 549 573 575 605 606 612 613 622 652 684 691 692 702 704 710 734 737 739 769
b 43 26 34 67 77 96 98 132 144 160 177 193 235 252 306 315 330 335 348 379 382 384 417 438 441 460 468 485 507 519 549 573 575 612 613 622 652 684 691 692 702 704 710 734 737 739 769
b 44 26 34 67 77 96 98 114 132 160 177 193 235 252 297 301 330 335 348 379 384 417 438 441 454 460 468 485 507 519 549 573 575 612 622 652 691 692 702 710 734 737 739 769
b 45 34 67 77 90 96 98 114 132 160 186 188 193 235 252 278 297 301 330 335 348 361 370 379 417 438 441 454 460 468 485 507 519 549 573 612 622 652 691 692 702 710 734 737 739 745 769
b 46 34 77 90 96 98 114 132 160 184 186 188 193 252 278 297 301 330 335 342 348 361 370 379 438 453 454 460 468 485 507 519 520 573 612 622 652 691 692 702 710 734 737 739 745 769
b 47 34 77 90 96 98 114 132 184 186 188 252 278 297 301 330 335 342 348 361 370 379 438 453 454 460 468 485 507 519 520 573 574 643 652 657 691 692 699 702 734 737 739 745
b 48 43 77 86 90 96 98 114 146 184 186 188 252 277 278 297 301 311 330 335 361 370 438 453 454 460 485 492 507 519 520 573 574 587 643 645 657 691 692 699 702 728 734 737 739 745
b 49 43 77 86 90 98 125 146 186 187 188 277 278 311 330 335 361 368 370 390 492 519 573 587 645 650 691 692 702 728 734 737 745
b 50 2 77 90 98 125 186 187 188 282 312 330 335 368 370 390 573 650 675 691 692 702 734 737
b 51 43 77 86 90 98 125 146 186 187 188 257 277 278 311 330 361 368 370 390 492 519 573 587 645 650 664 691 728 734 737 745
b 52 31 43 77 86 90 98 146 186 188 257 277 300 311 330 370 390 419 484 492 519 573 587 602 609 645 650 664 691 708 728 734 737 745
b 53 8 31 43 77 86 98 110 146 277 300 311 330 419 484 492 511 519 573 587 591 602 609 641 645 691 708 728 734 737 745
b 54 8 43 71 77 86 98 110 146 277 300 311 330 419 492 511 519 573 587 591 602 609 641 645 691 708 728 734 737 745
b 55 8 43 71 77 86 98 110 146 277 300 311 330 383 419 492 511 519 573 587 591 602 641 645 691 708 728 734 737 745
b 56 8 43 71 77 86 98 110 146 263 277 311 330 383 419 492 511 519 573 587 591 641 645 691 728 734 737 745
b 57 43 86 96 114 121 146 184 252 277 297 301 302 311 335 438 453 454 460 485 487 492 502 507 520 574 587 643 645 657 699 702 728 739
b 58 9 43 53 86 96 114 121 146 184 247 252 277 297 301 302 305 311 317 376 394 426 433 438 453 454 460 485 487 502 520 528 564 574 587 592 615 630 643 645 657 699 728
b 59 9 53 96 114 184 247 252 297 301 305 308 317 358 376 385 394 426 433 438 453 454 460 485 520 528 564 574 576 592 615 630 643 657 699 770
b 60 9 53 114 184 247 281 292 297 301 305 308 314 317 358 376 385 394 426 433 438 453 454 510 520 528 564 574 576 592 615 630 643 657 699 758 770
b 61 9 53 79 114 209 247 281 292 297 301 305 308 314 317 358 376 380 385 394 426 433 454 510 528 564 574 576 592 615 630 643 657 699 758 770
b 62 9 53 68 79 114 209 247 281 292 297 301 305 308 314 317 358 376 380 385 394 426 433 454 510 528 564 574 576 592 615 630 657 699 758 770
b 63 9 41 53 68 79 149 200 209 218 247 272 281 292 305 308 314 317 358 362 376 380 385 394 426 433 510 528 538 564 576 592 615 630 687 724 758 770
b 64 41 68 79 87 149 200 209 218 272 281 292 308 314 317 358 362 380 385 466 510 538 564 576 687 724 758 770
b 65 68 79 87 209 317 362 380 466 493 552 564
b 66 22 87 317 362 466 479 493 552
b 67 9 43 53 86 96 121 146 184 247 252 277 302 305 311 317 376 394 426 433 438 445 453 460 485 487 502 520 524 528 564 567 587 592 615 630 645 728
b 68 9 43 53 86 96 121 146 184 247 252 277 302 305 311 317 376 394 426 433 445 453 460 485 487 502 520 524 528 564 567 587 592 615 621 630 645 728
b 69 9 43 53 86 111 121 146 192 212 247 277 302 305 311 317 376 394 407 420 426 433 445 487 502 524 528 539 564 567 577 587 592 615 621 630 633 645 728
b 70 67 90 148 182 186 188 193 235 278 361 370 379 417 423 441 468 549 612 622 652 745 766
b 71 67 148 182 193 235 278 346 361 379 417 423 441 468 549 612 622 652 654 676 766
b 72 66 67 148 153 182 193 235 278 346 361 417 423 441 468 549 612 622 654 676 766
b 73 23 66 67 148 153 182 197 235 278 346 361 417 423 430 468 622 654 655 676 766
b 74 23 66 67 153 197 235 278 346 361 417 430 468 584 622 654 655 676 677
b 75 23 104 153 197 235 278 346 361 417 430 468 584 622 654 655 676 677 715
b 76 23 56 62 104 153 197 235 346 417 430 468 584 622 654 655 676 677 715
b 77 142 144 306 315 382 417 613 684 704
b 78 14 26 34 67 85 132 144 145 159 160 170 175 177 193 235 258 291 303 306 315 338 348 365 374 379 382 438 441 468 485 525 549 570 575 590 605 606 612 613 622 644 652 684 692 704 710 729 769
b 79 14 26 34 67 85 132 144 145 159 160 170 175 177 193 235 258 291 303 306 315 338 348 365 374 382 403 441 485 525 549 566 570 575 590 605 606 612 613 644 684 692 703 704 710 729 769 771
b 80 12 14 26 67 118 144 145 159 170 175 177 193 194 235 258 291 303 306 315 322 338 365 374 382 403 441 485 497 525 549 566 570 575 590 605 606 608 612 613 624 644 684 692 703 704 729 771
b 81 12 26 61 67 78 118 144 145 170 175 177 193 194 235 251 258 306 313 315 322 338 365 374 382 403 421 441 485 497 547 549 566 570 575 605 606 608 612 613 624 636 649 684 692 703 704 729 771
b 82 61 67 78 144 145 175 193 235 251 258 306 313 315 338 365 374 382 403 421 441 485 497 514 547 549 566 570 604 612 613 636 649 684 692 703 704 729 771
b 83 36 61 67 78 144 145 175 193 235 251 258 306 313 315 338 365 374 382 403 421 441 485 497 514 547 549 566 570 604 612 613 636 649 684 703 704 729 751 771
b 84 36 61 67 78 145 175 193 235 236 251 258 313 338 365 374 403 421 441 464 485 497 508 514 547 549 566 570 580 604 612 636 649 703 729 751 771
b 85 61 67 78 136 145 175 193 233 235 236 251 258 313 338 365 374 403 421 441 464 485 497 508 547 549 566 570 580 612 636 649 703 729 771
b 86 61 67 78 136 145 175 193 233 235 236 251 258 266 313 338 365 374 403 421 441 462 464 485 497 508 547 549 566 570 580 612 636 649 729 771
b 87 61 67 78 83 136 145 175 193 233 235 236 251 258 266 313 338 365 374 421 441 457 462 464 485 497 508 547 549 570 580 612 636 649 658 729
b 88 61 67 78 83 136 145 175 193 233 235 236 251 258 266 313 338 365 374 421 441 457 462 464 485 497 508 547 549 570 580 603 612 636 649 658
b 89 61 67 78 83 136 175 193 233 235 251 258 266 313 352 364 365 374 421 441 457 462 485 497 534 547 549 603 612 636 649 658 711
b 90 36 61 144 161 251 306 313 315 382 421 496 514 547 604 613 636 649 684 704 751 752
b 91 36 61 144 161 251 306 313 315 320 421 496 514 547 604 613 636 649 684 704 751 752
b 92 12 26 78 118 170 177 194 322 392 403 566 575 605 606 608 624 703 771
b 93 12 14 118 159 194 203 291 303 322 422 467 497 513 525 590 608 624 644
b 94 14 34 37 73 85 132 145 159 160 175 258 303 338 348 365 374 375 403 525 566 570 590 607 644 703 710 729 769 771
b 95 14 34 37 73 85 132 145 159 160 175 258 303 338 348 365 374 375 525 570 590 607 644 694 710 729 769
b 96 14 34 37 73 115 145 175 221 228 258 303 338 348 365 374 375 570 607 694 729
b 97 25 37 73 93 115 145 175 221 228 258 338 365 374 375 570 607 729
b 98 25 37 46 73 93 115 145 175 221 228 258 338 365 374 431 570 607 729 762
b 99 25 46 93 115 175 221 228 258 264 365 374 431 594 733 762
b 100 25 46 93 115 221 228 258 264 267 365 374 431 594 733 762
b 101 25 46 93 175 264 431 450 461 594 733
b 102 1 4 10 26 34 38 47 65 77 98 132 160 170 190 215 244 330 335 348 438 485 500 507 519 565 573 575 595 605 606 691 702 710 727 734 737 739 742 769
b 103 1 4 10 34 38 47 65 77 98 108 132 160 162 170 190 215 244 309 330 335 348 413 438 485 500 507 519 565 573 595 605 606 691 702 710 727 734 737 739 742 769
b 104 1 4 10 34 38 47 65 77 98 108 132 160 162 180 190 215 244 309 330 335 348 413 438 500 507 519 565 573 593 595 691 702 710 727 734 737 739 742 769
b 105 1 4 7 10 34 38 47 65 77 98 108 160 162 180 190 215 242 244 309 330 335 348 413 438 451 500 507 519 565 573 593 595 691 702 710 727 734 737 739 742 769
b 106 1 4 7 10 38 47 65 77 82 98 108 162 180 190 215 242 244 307 309 330 335 413 451 480 483 500 507 519 565 573 583 593 595 631 691 702 727 734 737 739 742
b 107 4 38 65 77 82 98 108 133 162 190 205 225 244 307 309 330 335 404 413 480 483 500 507 519 573 583 589 595 631 634 691 702 731 734 737 739 767
b 108 4 65 77 82 108 133 137 162 190 205 225 244 307 309 330 332 404 413 480 483 500 509 519 583 589 595 631 634 666 731 734 767
b 109 7 34 160 180 242 348 438 451 593 700 710 769
b 110 10 26 47 170 215 485 498 575 605 606 727 742
b 111 1 4 26 34 38 65 132 177 190 244 348 500 565 568 575 595 697
b 112 5 45 92 107 119 172 223 262 295 372 386 436 439 446 449 459 481 523 535 545 556 639 642 653 673 716 720 763
b 113 45 51 81 92 107 119 120 139 152 223 262 273 280 295 372 386 402 417 436 439 446 449 459 465 476 481 499 523 545 556 557 599 610 628 639 642 653 660 671 673 690 712 716 720 743 759 763
b 114 6 45 51 81 92 107 119 120 139 152 219 262 273 280 295 343 347 353 372 386 402 417 436 446 459 465 476 499 523 545 557 560 599 610 628 639 642 660 671 673 690 693 712 716 720 743 759
b 115 6 45 51 81 92 100 107 119 120 139 152 219 240 273 280 343 347 353 366 377 386 402 417 446 455 459 465 476 499 523 557 560 578 599 610 620 628 639 642 660 671 673 689 693 712 720 743 759
b 116 6 45 51 81 92 100 107 119 120 139 152 240 280 343 347 366 377 386 402 417 446 455 459 465 476 499 523 533 557 560 578 585 599 620 628 639 642 660 671 673 689 693 712 720 743 759
b 117 6 17 45 51 54 81 92 100 107 119 120 139 152 240 280 343 347 366 377 386 402 417 446 455 459 465 476 499 523 533 557 560 578 585 599 620 628 639 642 660 671 673 689 693 720 743 759
b 118 6 17 45 54 92 100 107 119 120 139 152 154 240 343 347 366 377 386 402 417 446 455 459 465 501 523 533 557 560 578 585 599 620 628 639 642 671 672 673 689 693 695 720 759
b 119 6 17 45 54 100 119 120 139 152 154 240 343 347 366 377 386 402 417 443 446 455 459 465 501 533 557 560 578 585 599 620 628 642 671 672 673 689 693 695 720 759
b 120 17 45 54 100 119 120 139 154 240 347 366 371 386 443 446 455 459 501 506 533 557 578 585 599 620 628 642 671 672 673 689 695 720 759 760 772
b 121 45 100 119 120 139 154 240 347 366 371 373 386 428 443 446 455 459 501 506 557 578 599 620 628 642 671 672 673 689 695 720 759 760 772
b 122 45 100 119 120 139 154 240 304 347 366 371 373 386 428 443 446 455 459 506 557 578 599 620 628 642 671 672 673 689 695 720 738 759 760 772
b 123 45 100 119 120 139 240 304 347 366 371 373 386 428 443 446 455 459 471 506 532 551 557 578 599 620 628 642 671 673 689 720 738 759 760 772
b 124 45 100 119 120 139 240 304 347 366 371 373 386 428 443 446 455 471 506 532 551 557 578 599 620 628 640 642 671 673 689 720 738 759 760 772
b 125 45 100 120 123 139 201 240 304 347 366 373 386 428 443 446 455 471 532 551 557 578 599 600 620 628 640 642 671 689 705 738 759
b 126 17 51 54 81 100 185 240 280 366 369 401 455 476 499 533 578 585 620 660 689 743
b 127 17 51 54 100 185 238 240 280 366 369 401 455 476 499 533 578 585 620 660 689 743
b 128 6 24 165 219 262 295 334 343 347 353 372 436 545 560 690 693 696 716
b 129 45 51 76 81 105 119 120 139 152 223 262 273 280 295 357 372 386 402 415 417 436 439 446 449 459 465 476 481 499 545 546 556 557 599 610 628 642 653 660 671 673 690 712 716 720 743 759 763
b 130 32 52 76 101 105 120 130 139 147 152 171 181 223 231 273 331 357 402 415 417 439 449 465 470 481 530 546 556 557 558 561 599 610 611 619 628 653 663 671 698 712 741 759
b 131 32 52 101 120 130 147 152 171 174 181 223 231 273 331 357 402 414 415 417 439 449 465 470 481 530 556 557 558 561 571 599 610 611 619 628 653 656 663 698 712 730 741
b 132 32 52 101 120 122 130 147 152 171 174 223 231 273 357 402 408 414 415 417 439 449 465 470 481 531 556 557 558 561 571 599 610 611 617 619 628 653 656 698 712 717 730 741
b 133 13 15 52 55 101 122 130 147 152 173 174 211 223 231 248 273 283 402 408 414 415 417 439 449 465 470 481 531 556 558 571 599 610 611 617 635 653 656 698 712 717 730 741
b 134 13 15 52 55 101 113 122 130 147 164 173 174 211 231 234 248 283 388 408 414 470 531 558 611 617 635 656 698 712 717 741 750
b 135 13 29 55 91 113 122 164 173 211 234 248 283 388 408 410 414 531 635 656 712 717 744 750
b 136 13 15 52 55 101 113 122 130 147 151 164 173 174 211 231 234 248 283 284 388 408 470 531 558 611 617 635 698 717 741 750
b 137 13 15 33 52 55 101 122 130 147 151 164 173 174 211 231 248 271 283 284 316 321 408 470 515 531 540 558 611 617 635 717 750 757
b 138 13 15 33 52 55 101 130 147 173 174 211 231 243 248 271 283 316 321 395 470 515 540 558 579 611 617 635 747 755 757
b 139 13 15 52 55 101 130 147 173 174 211 231 243 248 283 316 321 395 470 515 540 558 579 611 617 635 723 747 755 757
b 140 13 15 52 55 101 130 147 173 174 211 231 243 248 283 316 321 325 395 470 515 540 558 579 611 617 635 723 747 755
b 141 13 15 52 55 101 130 138 147 173 174 211 231 243 248 283 325 395 470 540 558 579 611 617 635 723 747 755
b 142 13 15 55 117 126 135 152 173 196 210 211 223 248 273 283 318 324 402 414 415 417 439 449 465 477 481 556 571 599 601 610 635 653 656 685 730 740
b 143 13 15 55 117 126 135 152 173 196 210 211 223 248 273 283 318 324 402 414 417 439 449 465 477 481 536 556 571 599 601 610 635 653 656 685 730 740
b 144 13 15 55 117 126 135 142 152 173 196 210 211 223 248 273 283 318 324 414 417 477 536 556 571 601 610 635 653 656 685 730 740
b 145 13 15 55 117 126 135 142 152 155 173 196 210 211 223 248 273 283 318 324 333 414 448 463 477 505 536 556 571 601 610 635 653 656 685 686 730 740
b 146 39 126 142 152 155 223 273 333 448 463 505 556 610 653 686 740 768
b 147 13 15 55 60 117 135 142 155 173 196 210 211 226 248 265 269 283 318 324 333 414 448 463 477 505 536 563 571 601 635 647 656 685 686 730 753 756
b 148 13 15 60 117 135 142 173 196 210 226 260 265 269 286 318 324 333 337 448 463 477 505 536 563 601 635 647 685 686 746 753 756
b 149 126 152 204 210 223 273 318 324 402 415 417 439 449 465 477 481 556 599 601 610 653 685 721 740
b 150 126 204 210 223 273 290 318 324 402 415 417 439 449 465 477 481 556 586 599 601 610 653 685 721 740
b 151 124 126 204 210 223 290 318 324 402 415 439 449 477 481 556 586 601 629 653 685 721 740
b 152 124 126 204 210 223 290 318 319 324 363 402 415 439 449 477 481 556 586 601 629 685 721 740
b 153 124 126 191 204 210 290 318 319 324 351 363 402 439 477 586 601 629 685 721 740
b 154 44 124 126 191 204 210 254 290 318 319 324 351 402 477 586 601 629 685 721 740
b 155 52 76 101 105 120 130 139 147 152 181 206 223 224 231 273 298 331 357 402 415 417 429 439 449 465 470 481 518 530 546 556 557 558 599 610 611 628 653 663 671 759
b 156 52 69 76 101 105 120 130 140 147 157 181 206 223 224 231 268 298 331 357 402 409 415 417 429 439 447 449 465 470 481 518 530 546 556 557 558 599 611 628 653 663 665
b 157 18 52 69 101 120 130 140 147 157 181 206 224 231 237 268 298 310 331 402 409 415 417 429 447 465 470 518 530 557 558 599 611 628 663 665
b 158 18 27 52 69 75 88 99 101 112 128 130 140 147 157 176 181 206 231 237 268 270 279 298 310 331 409 415 418 429 444 447 470 472 518 530 558 599 611 614 663 665 683
b 159 18 27 69 75 88 99 112 128 140 157 176 206 237 268 270 279 289 298 310 355 397 399 409 415 418 429 444 447 472 488 518 599 614 665 683
b 160 27 69 75 80 88 99 112 128 140 157 176 206 239 253 268 270 279 289 298 355 397 399 409 415 418 429 444 447 472 488 518 572 614 665 683
b 161 27 59 69 75 80 88 99 112 128 140 157 176 239 253 268 270 279 289 355 397 399 409 415 418 444 447 472 488 572 614 665 667 683
b 162 27 59 69 75 80 88 99 112 128 140 176 239 253 268 270 276 279 289 355 397 399 409 415 418 444 447 472 488 553 572 614 665 667 683 754
b 163 16 27 50 59 75 80 88 99 102 112 128 176 239 253 259 270 276 279 289 340 355 397 399 418 440 444 472 488 553 555 572 614 667 683 701 748 754
b 164 16 50 59 80 102 128 239 253 259 276 289 340 355 397 398 399 440 444 473 488 553 555 572 667 701 748 754
b 165 30 80 128 239 253 326 398 444 473 572 748
b 166 30 198 326 398 444 473 638 748
b 167 18 27 52 69 75 88 99 101 112 128 130 140 147 176 181 230 231 237 270 279 310 331 415 418 444 470 472 522 530 558 599 611 614 663 665 683 713
b 168 18 27 52 69 75 88 99 101 112 128 130 140 147 176 181 230 231 237 270 279 310 331 418 444 470 472 522 530 542 558 599 611 614 663 665 683 713
b 169 27 28 52 75 88 99 101 112 128 130 143 147 163 176 181 217 230 231 270 279 323 331 418 444 470 472 503 521 522 530 542 558 611 614 663 683 713 725
b 170 69 76 105 140 157 223 268 288 357 409 415 439 447 449 481 546 556 557 628 653 665
b 171 32 76 94 105 120 129 139 150 171 357 546 557 561 588 619 628 671 698 741 759
b 172 76 94 105 120 129 139 150 158 179 214 357 411 546 557 588 628 671 698 741 759
b 173 49 76 94 105 129 150 158 179 202 214 357 411 434 546 557 588 628 671 698 741
b 174 49 76 94 129 150 158 179 202 214 357 393 411 434 588 648 671 698 741
b 175 49 76 94 129 150 158 179 214 345 354 393 411 434 588 648 671 698 741
b 176 120 139 158 179 214 275 411 557 628 671 759
b 177 5 20 45 92 107 119 172 189 386 446 459 523 535 639 642 673 720
b 178 5 20 35 45 92 97 107 119 172 189 386 446 459 535 581 639 642 673 720
b 179 5 20 35 45 97 172 189 199 386 416 446 535 541 581 642
b 180 20 35 74 97 189 199 386 416 541 596
b 181 5 20 35 45 97 172 189 199 416 446 490 535 541 581 642
b 182 5 92 107 172 223 262 295 356 372 436 439 449 481 523 535 545 556 639 653 716 763
b 183 14 40 57 249 294 299 303 306 359 512 644 684 704
b 184 14 40 57 294 299 303 306 359 512 644 669 670 684 704
b 185 14 57 144 159 303 306 315 359 382 512 525 590 613 644 669 670 684 704
b 186 14 144 159 291 303 306 315 359 382 512 525 590 613 644 684 704
b 187 72 229 280 360 372 389 425 436 476 545 627 660 707
b 188 72 229 280 350 360 372 389 436 476 527 545 627 660 707
b 189 51 72 81 262 280 295 350 360 372 389 436 476 499 527 545 660 716 743
b 190 51 81 262 280 295 360 372 389 436 476 499 545 660 690 716 743
b 191 11 161 168 296 306 313 320 421 424 496 636 684 704 752
b 192 58 185 238 240 280 341 369 401 455 476 544 578 597 660
b 193 12 14 156 166 194 203 303 378 387 422 467 513 624 644
b 194 24 165 219 334 344 353 372 391 436 545 560 659 668 696
b 195 83 175 207 258 352 364 365 374 381 457 534 603 623 658 711 749
b 196 45 123 201 287 386 437 446 471 532 543 551 569 600 640 642 705
b 197 32 116 120 122 171 357 408 531 557 561 616 617 619 628 661 717 732
b 198 67 90 148 182 186 188 193 256 370 423 529 612 622 679 736 745 766
b 199 1 7 10 47 63 82 84 131 180 215 242 307 451 480 483 565 583 593 631 727 742
b 200 44 124 126 134 183 191 204 210 254 318 319 324 351 477 586 601 629 685 721 735 740
b 201 2 77 98 125 187 208 282 312 330 335 336 368 390 396 548 573 637 646 650 674 675 678 691 692 734 737
b 202 2 77 98 125 187 282 312 330 335 368 390 573 646 650 675 691 692 702 734 737
b 203 13 29 55 91 113 164 173 211 222 234 248 250 283 388 410 482 494 537 635 656 662 706 712 744 750 761
b 204 13 29 55 91 113 164 173 211 234 248 283 388 410 414 635 656 712 744 750 761
1 76
2 36
3 108
4 193
5 191
6 15
7 9
8 175
9 196
10 22
11 201
12 194
13 34
14 192
15 112
16 200
17 199
18 148
19 20
20 195
21 203
22 78
23 128
24 93
25 26
26 27
27 113
28 29
29 30
30 77
31 32
32 33
33 78
34 35
35 65
36 37
37 165
38 39
39 40
40 113
41 42
41 102
41 111
42 43
42 78
43 44
43 77
44 45
45 46
45 70
46 47
47 48
48 49
48 57
49 50
49 51
50 202
51 52
52 53
53 54
54 55
55 56
57 58
58 59
58 67
59 60
60 61
61 62
62 63
63 64
64 65
65 66
67 68
68 69
70 198
70 71
71 72
72 73
73 74
74 75
75 76
77 144
78 186
78 79
79 80
79 94
80 81
80 93
81 82
81 92
82 83
83 84
83 90
84 85
85 86
86 87
87 88
88 89
89 195
90 91
91 191
93 193
94 95
95 96
96 97
97 98
98 99
99 100
99 101
102 103
102 110
103 104
104 105
105 106
105 109
106 199
106 107
107 108
112 113
112 177
112 182
113 190
113 114
113 129
114 115
114 128
115 116
116 117
117 118
117 126
118 119
119 120
120 121
121 122
122 123
123 124
124 125
125 196
126 127
127 192
128 194
129 130
130 131
130 155
130 171
131 132
132 197
132 133
133 134
133 142
134 135
134 136
135 204
136 137
137 138
138 139
139 140
140 141
142 143
142 149
143 144
144 145
145 146
145 147
147 148
149 150
150 151
151 152
152 153
153 154
154 200
155 156
156 157
156 170
157 158
158 159
158 167
159 160
160 161
161 162
162 163
163 164
164 165
165 166
167 168
168 169
171 172
172 173
172 176
173 174
174 175
177 178
178 179
179 180
179 181
183 184
184 185
185 186
187 188
188 189
189 190
201 202
203 204
